     Program PWSCF v.7.3.1 starts on 31Aug2024 at 12: 8:31
        Git branch: develop
        Last git commit: de3035747f5d8f2ec9a67869827341ebb43f5b12
        Last git commit date: Tue May 7 11:03:11 2024 +0000
        Last git commit subject: Merge branch 'LR_Modules-ZGEMM' into 'develop'

     Waiting for input...
     Reading input from standard input

     Current dimensions of program PWSCF are:
     Max number of different atomic species (ntypx) = 10
     Max number of k-points (npk) =  40000
     Max angular momentum in pseudopotentials (lmaxx) =  4

     gamma-point specific algorithms are used

     R & G space division:  proc/nbgrp/npool/nimage =      32
     Subspace diagonalization in iterative solution of the eigenvalue problem:
     a serial algorithm will be used

     Using Slab Decomposition

     bravais-lattice index     =            1
     lattice parameter (alat)  =      42.0000  a.u.
     unit-cell volume          =   74088.0000 (a.u.)^3
     number of atoms/cell      =           60
     number of atomic types    =            1
     number of electrons       =       240.00
     number of Kohn-Sham states=          120
     kinetic-energy cutoff     =      50.0000  Ry
     charge density cutoff     =     200.0000  Ry
     scf convergence threshold =      1.0E-10
     mixing beta               =       0.7000
     number of iterations used =            8  plain     mixing
     Exchange-correlation= PBE
                           (   1   4   3   4   0   0   0)

     celldm(1)=  42.000000  celldm(2)=   0.000000  celldm(3)=   0.000000
     celldm(4)=   0.000000  celldm(5)=   0.000000  celldm(6)=   0.000000

     crystal axes: (cart. coord. in units of alat)
               a(1) = (   1.000000   0.000000   0.000000 )
               a(2) = (   0.000000   1.000000   0.000000 )
               a(3) = (   0.000000   0.000000   1.000000 )

     reciprocal axes: (cart. coord. in units 2 pi/alat)
               b(1) = (  1.000000  0.000000  0.000000 )
               b(2) = (  0.000000  1.000000  0.000000 )
               b(3) = (  0.000000  0.000000  1.000000 )

     PseudoPot. # 1 for C  read from file:
     /home/luw/ONCVPSP/abinit/C_ONCV_PBE_sr.upf
     MD5 check sum: be7deea5c8a9eeec940f0cd39a542f08
     Pseudo is Norm-conserving + core correction, Zval =  4.0
     Generated using ONCVPSP code by D. R. Hamann
     Using radial grid of 1248 points,  4 beta functions with:
                l(1) =   0
                l(2) =   0
                l(3) =   1
                l(4) =   1

     atomic species   valence    mass     pseudopotential
     C                 4.00    12.01100     C ( 1.00)

      4 Sym. Ops., with inversion, found

   Cartesian axes

     site n.     atom                  positions (alat units)
         1        C      tau(   1) = (   0.5450239   0.5327117   0.6497479  )
         2        C      tau(   2) = (   0.4828021   0.5529288   0.6497479  )
         3        C      tau(   3) = (   0.5882232   0.5640978   0.6167466  )
         4        C      tau(   4) = (   0.4663015   0.6037126   0.6167466  )
         5        C      tau(   5) = (   0.4106486   0.6037126   0.5823513  )
         6        C      tau(   6) = (   0.4443469   0.4999998   0.6497479  )
         7        C      tau(   7) = (   0.3909497   0.4999998   0.6167466  )
         8        C      tau(   8) = (   0.3737520   0.5529288   0.5823513  )
         9        C      tau(   9) = (   0.6332473   0.4686137   0.5823513  )
        10        C      tau(  10) = (   0.5882232   0.4359018   0.6167466  )
        11        C      tau(  11) = (   0.6332473   0.5313859   0.5823513  )
        12        C      tau(  12) = (   0.5450239   0.4672879   0.6497479  )
        13        C      tau(  13) = (   0.4828021   0.4470708   0.6497479  )
        14        C      tau(  14) = (   0.5710255   0.3829727   0.5823513  )
        15        C      tau(  15) = (   0.5113256   0.3635751   0.5823513  )
        16        C      tau(  16) = (   0.4663015   0.3962870   0.6167466  )
        17        C      tau(  17) = (   0.6540740   0.5327117   0.4733012  )
        18        C      tau(  18) = (   0.6540740   0.4672879   0.4733012  )
        19        C      tau(  19) = (   0.6438760   0.5640978   0.5266984  )
        20        C      tau(  20) = (   0.6438760   0.4359018   0.5266984  )
        21        C      tau(  21) = (   0.6054208   0.3829727   0.5266984  )
        22        C      tau(  22) = (   0.6262476   0.4470708   0.4176483  )
        23        C      tau(  23) = (   0.5893510   0.3962870   0.4176483  )
        24        C      tau(  24) = (   0.5787222   0.3635751   0.4733012  )
        25        C      tau(  25) = (   0.5787222   0.6364245   0.4733012  )
        26        C      tau(  26) = (   0.5893510   0.6037126   0.4176483  )
        27        C      tau(  27) = (   0.6054208   0.6170269   0.5266984  )
        28        C      tau(  28) = (   0.6262476   0.5529288   0.4176483  )
        29        C      tau(  29) = (   0.6090499   0.4999998   0.3832530  )
        30        C      tau(  30) = (   0.5336981   0.6037126   0.3832530  )
        31        C      tau(  31) = (   0.5171975   0.5529288   0.3502517  )
        32        C      tau(  32) = (   0.5556527   0.4999998   0.3502517  )
        33        C      tau(  33) = (   0.5113256   0.6364245   0.5823513  )
        34        C      tau(  34) = (   0.4834992   0.6566416   0.5266984  )
        35        C      tau(  35) = (   0.5710255   0.6170269   0.5823513  )
        36        C      tau(  36) = (   0.5165004   0.6566416   0.4733012  )
        37        C      tau(  37) = (   0.4886740   0.6364245   0.4176483  )
        38        C      tau(  38) = (   0.4212774   0.6364245   0.5266984  )
        39        C      tau(  39) = (   0.3945788   0.6170269   0.4733012  )
        40        C      tau(  40) = (   0.4289741   0.6170269   0.4176483  )
        41        C      tau(  41) = (   0.4549757   0.4672879   0.3502517  )
        42        C      tau(  42) = (   0.4549757   0.5327117   0.3502517  )
        43        C      tau(  43) = (   0.4117764   0.5640978   0.3832530  )
        44        C      tau(  44) = (   0.4117764   0.4359018   0.3832530  )
        45        C      tau(  45) = (   0.4886740   0.3635751   0.4176483  )
        46        C      tau(  46) = (   0.5336981   0.3962870   0.3832530  )
        47        C      tau(  47) = (   0.5171975   0.4470708   0.3502517  )
        48        C      tau(  48) = (   0.4289741   0.3829727   0.4176483  )
        49        C      tau(  49) = (   0.4212774   0.3635751   0.5266984  )
        50        C      tau(  50) = (   0.4834992   0.3433580   0.5266984  )
        51        C      tau(  51) = (   0.5165004   0.3433580   0.4733012  )
        52        C      tau(  52) = (   0.3945788   0.3829727   0.4733012  )
        53        C      tau(  53) = (   0.3459256   0.4672879   0.5266984  )
        54        C      tau(  54) = (   0.3737520   0.4470708   0.5823513  )
        55        C      tau(  55) = (   0.4106486   0.3962870   0.5823513  )
        56        C      tau(  56) = (   0.3561236   0.4359018   0.4733012  )
        57        C      tau(  57) = (   0.3667523   0.5313859   0.4176483  )
        58        C      tau(  58) = (   0.3561236   0.5640978   0.4733012  )
        59        C      tau(  59) = (   0.3459256   0.5327117   0.5266984  )
        60        C      tau(  60) = (   0.3667523   0.4686137   0.4176483  )

     number of k points=     1
                       cart. coord. in units 2pi/alat
        k(    1) = (   0.0000000   0.0000000   0.0000000), wk =   2.0000000

     Initial potential from superposition of free atoms

     starting charge     239.9973, renormalised to     240.0000

     negative rho (up, down):  1.568E-02 0.000E+00
     Starting wfcs are  240 randomized atomic wfcs

     Self-consistent Calculation

     iteration #  1     ecut=    50.00 Ry     beta= 0.70
     Davidson diagonalization with overlap
     ethr =  1.00E-02,  avg # of iterations =  2.0

     negative rho (up, down):  3.753E-03 0.000E+00

     total energy              =    -719.30608663 Ry
     estimated scf accuracy    <       5.57003982 Ry

[...]

     negative rho (up, down):  1.505E-08 0.000E+00

[...]

     total energy              =    -720.47019713 Ry
     estimated scf accuracy    <          1.3E-09 Ry

     iteration # 13     ecut=    50.00 Ry     beta= 0.70
     Davidson diagonalization with overlap
     ethr =  4.25E-13,  avg # of iterations =  2.0

     End of self-consistent calculation

          k = 0.0000 0.0000 0.0000 (221272 PWs)   bands (ev):

   -23.9622 -23.4533 -23.4533 -23.4533 -22.4792 -22.4792 -22.4791 -22.4791
   -22.4791 -21.4580 -21.4579 -21.4578 -20.6361 -20.6361 -20.6360 -20.6360
   -19.3489 -19.3489 -19.3488 -19.3488 -19.3488 -18.9014 -18.9013 -18.9013
   -18.9013 -17.4255 -17.4255 -17.4254 -17.4254 -17.4254 -17.1643 -17.1642
   -17.1642 -16.1166 -16.1165 -16.1165 -15.1209 -15.1208 -15.1208 -15.1208
   -15.1207 -14.9751 -14.9751 -14.9750 -14.5396 -13.3886 -13.3886 -13.3885
   -13.3885 -12.6901 -12.6900 -12.6900 -12.6900 -12.6899 -12.3637 -12.3636
   -12.3636 -11.7495 -11.7494 -11.7493 -11.6515 -11.0670 -11.0670 -11.0670
   -11.0669 -11.0593 -11.0593 -11.0592 -10.5510 -10.5509 -10.5509 -10.5509
   -10.5508 -10.1943 -10.1943 -10.1942 -10.1942  -9.9495  -9.9494  -9.9494
    -9.9494  -9.9493  -9.9102  -9.9100  -9.9100  -9.3973  -9.3973  -9.3972
    -9.3971  -8.6410  -8.6408  -8.6408  -8.3752  -8.3751  -8.3751  -8.3751
    -8.3749  -8.1149  -8.1148  -8.1148  -8.1148  -8.0637  -8.0637  -8.0636
    -8.0635  -8.0632  -6.5432  -6.5431  -6.5431  -6.5431  -6.5429  -6.4373
    -6.4372  -6.4372  -6.4371  -5.2725  -5.2725  -5.2725  -5.2724  -5.2723

     highest occupied level (ev):    -5.2723

!    total energy              =    -720.47019713 Ry
     estimated scf accuracy    <          8.1E-11 Ry

     The total energy is the sum of the following terms:
     one-electron contribution =   -8290.56343434 Ry
     hartree contribution      =    4170.49705980 Ry
     xc contribution           =    -256.02951033 Ry
     ewald contribution        =    3655.62568774 Ry

     convergence has been achieved in  13 iterations

     Writing all to output data dir ./tempdir/C60.save/ :
     XML data file, charge density, pseudopotentials, collected wavefunctions

     General routines

     Parallel routines

   This run was terminated on:  12: 9:27  31Aug2024

   JOB DONE.