 vasp.6.4.3 19Mar24 (build Sep 16 2025 16:33:43) complex
 executed on             LinuxGNU date 2025.09.17  13:16:49

 INCAR:
   SYSTEM = CrI3
   ISTART = 1
   ICHARG = 1
   PREC = Accurate
   ENCUT = 350
   ADDGRID = .TRUE.
   ALGO = Fast
   EDIFF = 1E-06
   NELM = 100
   NELMIN = 2
   NELMDL = -5
   EDIFFG = -0.01
   NSW = 1000
   IBRION = 2
   ISIF = 4
   POTIM = 0.1
   ISMEAR = 0
   SIGMA = 0.01
   IVDW = 11
   ISPIN = 2
   MAGMOM = 2*4 6*0
   LORBIT = 11
   LDAU = .TRUE.
   LDAUTYPE = 2
   LDAUL = 2 -1
   LDAUU = 3.0 0.0
   LDAUJ = 0.0 0.0
   LDAUPRINT = 2
   LASPH = .TRUE.
   LMAXMIX = 4
   NPAR = 4
   KPAR = 8

 POTCAR:   PAW_PBE Cr_pv 07Sep2000
 POTCAR:   PAW_PBE I 08Apr2002
 POTCAR:   PAW_PBE Cr_pv 07Sep2000
   VRHFIN =Cr : p6d5s1

   TITEL  = PAW_PBE Cr_pv 07Sep2000
   POMASS =   51.996; ZVAL   =   12.000    mass and valenz
   ENMAX  =  265.683; ENMIN  =  199.262 eV
   QCUT   =   -4.419; QGAM   =    8.838    optimization parameters

   Description
     l     E      TYP  RCUT    TYP  RCUT
     1   .000     23  2.000
     1   .100     23  2.000
     2   .000     23  2.300
     2   .000     23  2.300
     0   .000     23  2.300
     0   .000     23  2.300
     3   .000      7   .000

 POTCAR:   PAW_PBE I 08Apr2002
   VRHFIN =I : s2p5

   TITEL  = PAW_PBE I 08Apr2002
   POMASS =  126.904; ZVAL   =    7.000    mass and valenz
   ENMAX  =  175.647; ENMIN  =  131.735 eV
   QCUT   =   -3.593; QGAM   =    7.186    optimization parameters

   Description
     l     E      TYP  RCUT    TYP  RCUT
     0   .000     23  2.300
     0   .000     23  2.300
     1   .000     23  2.300
     1   .000     23  2.300
     2   .000     23  2.300
     3  -.100     23  2.300

 PAW_PBE Cr_pv 07Sep2000                :
 PAW_PBE I 08Apr2002                    :

 POSCAR: generated by phonopy
  positions in cartesian coordinates
 IVDW         = 11
 VDW_S6       =    1.0000
 VDW_S8       =    0.7220
 VDW_SR       =    1.2170
 VDW_RADIUS   =   50.2022 A
 VDW_CNRADIUS =   21.1671 A

 exchange-correlation table for PE
   RHO(1)=    0.500       N(1)  =     2000
   RHO(2)=  100.500       N(2)  =     4000

 VTST: version 4.2, (11/09/24)

 CHAIN: initializing optimizer

 OPT: Using VASP Conjugate-Gradient optimizer
 CHAIN: Read ICHAIN            0

 POSCAR: generated by phonopy
  positions in cartesian coordinates
 before allocate FREE
 after allocate FREE
 FREE:    1.0000000000000000        1.0000000000000000        1.0000000000000000        1.0000000000000000        1.0000000000000000        1.0000000000000000        1.0000000000000000        1.0000000000000000        1.0000000000000000        1.0000000000000000        1.0000000000000000        1.0000000000000000        1.0000000000000000        1.0000000000000000        1.0000000000000000        1.0000000000000000        1.0000000000000000        1.0000000000000000        1.0000000000000000        1.0000000000000000        1.0000000000000000        1.0000000000000000        1.0000000000000000        1.0000000000000000

 ion  position               nearest neighbor table
   1  0.000  0.000  0.500-   7 2.77   8 2.77   6 2.77   4 2.77   5 2.77   3 2.77
   2  0.667  0.333  0.500-   5 2.77   4 2.77   3 2.77   8 2.77   6 2.77   7 2.77
   3  0.981  0.315  0.431-   2 2.77   1 2.77
   4  0.685  0.667  0.431-   2 2.77   1 2.77
   5  0.333  0.019  0.431-   2 2.77   1 2.77
   6  0.685  0.019  0.569-   1 2.77   2 2.77
   7  0.981  0.667  0.569-   1 2.77   2 2.77
   8  0.333  0.315  0.569-   1 2.77   2 2.77

  LATTYP: Found a hexagonal cell.
 ALAT       =     6.9794106535
 C/A-ratio  =     3.2954071829

  Lattice vectors:

 A1 = (   6.9794106535,   0.0000000000,   0.0000000000)
 A2 = (  -3.4897053267,   6.0443469293,   0.0000000000)
 A3 = (   0.0000000000,   0.0000000000,  23.0000000000)

Analysis of symmetry for initial positions (statically):
 Subroutine PRICEL returns:
 Original cell was already a primitive cell.

 Routine SETGRP: Setting up the symmetry group for a
 hexagonal supercell.

 Subroutine GETGRP returns: Found  3 space group operations
 (whereof  3 operations were pure point group operations)
 out of a pool of 24 trial point group operations.

The static configuration has the point symmetry C_3 .

Analysis of symmetry for dynamics (positions and initial velocities):
 Subroutine PRICEL returns:
 Original cell was already a primitive cell.

[...]

The dynamic configuration has the point symmetry C_3 .

Analysis of structural, dynamic, and magnetic symmetry:
 Subroutine PRICEL returns:
 Original cell was already a primitive cell.

 Routine SETGRP: Setting up the symmetry group for a
 hexagonal supercell.

 Subroutine GETGRP returns: Found  3 space group operations
 (whereof  3 operations were pure point group operations)
 out of a pool of 24 trial point group operations.

The overall configuration has the point symmetry C_3 .

 Subroutine INISYM returns: Found  3 space group operations
 (whereof  3 operations are pure point group operations),
 and found     1 'primitive' translations

                                     Primitive cell

  volume of cell :     970.2775

  direct lattice vectors                    reciprocal lattice vectors
     6.979410653  0.000000000  0.000000000     0.143278573  0.082721923 -0.000000000
    -3.489705327  6.044346929  0.000000000     0.000000000  0.165443846  0.000000000
     0.000000000  0.000000000 23.000000000     0.000000000 -0.000000000  0.043478261

  length of vectors
     6.979410653  6.979410653 23.000000000     0.165443846  0.165443846  0.043478261

  position of ions in fractional coordinates (direct lattice)
     0.000000000  0.000000000  0.500001439
     0.666666667  0.333333364  0.499992076
     0.981366938  0.314689818  0.430508153
     0.685310213  0.666677182  0.430508153
     0.333322849  0.018633093  0.430508153
     0.685336422  0.018682864  0.569491847
     0.981317167  0.666653620  0.569491847
     0.333346411  0.314663610  0.569491847

  ion indices of the primitive-cell ions
   primitive index   ion index
                 1           1
                 2           2
                 3           3
                 4           4
                 5           5
                 6           6
                 7           7
                 8           8

 KPOINTS: 1 Automatic mesh

Automatic generation of k-mesh.
 Grid dimensions read from file:
 generate k-points for:   12   12    1

 Generating k-lattice:

  Cartesian coordinates                     Fractional coordinates (reciprocal lattice)
     0.011939881  0.006893494 -0.000000000     0.083333333  0.000000000  0.000000000
     0.000000000  0.013786987  0.000000000     0.000000000  0.083333333  0.000000000
     0.000000000 -0.000000000  0.043478261     0.000000000  0.000000000  1.000000000

  Length of vectors
     0.013786987  0.013786987  0.043478261

  Shift w.r.t. Gamma in fractional coordinates (k-lattice)
     0.000000000  0.000000000  0.000000000

 Subroutine IBZKPT returns following result:

 Found     26 irreducible k-points:

 Following reciprocal coordinates:
            Coordinates               Weight
  0.000000  0.000000  0.000000      1.000000
  0.083333  0.000000  0.000000      6.000000
  0.166667  0.000000  0.000000      6.000000
  0.250000  0.000000  0.000000      6.000000
  0.333333  0.000000  0.000000      6.000000
  0.416667  0.000000  0.000000      6.000000
  0.500000  0.000000  0.000000      3.000000
  0.083333  0.083333  0.000000      6.000000
  0.166667  0.083333  0.000000      6.000000
 -0.166667  0.250000  0.000000      6.000000
  0.250000  0.083333  0.000000      6.000000
 -0.250000  0.333333  0.000000      6.000000
  0.333333  0.083333  0.000000      6.000000
 -0.333333  0.416667  0.000000      6.000000
  0.416667  0.083333  0.000000      6.000000
 -0.416667  0.500000  0.000000      6.000000
  0.166667  0.166667  0.000000      6.000000
  0.250000  0.166667  0.000000      6.000000
 -0.250000  0.416667  0.000000      6.000000
  0.333333  0.166667  0.000000      6.000000
 -0.333333  0.500000  0.000000      6.000000
  0.416667  0.166667  0.000000      6.000000
  0.250000  0.250000  0.000000      6.000000
  0.333333  0.250000  0.000000      6.000000
 -0.333333 -0.416667  0.000000      6.000000
  0.333333  0.333333  0.000000      2.000000

 Following cartesian coordinates:
            Coordinates               Weight
  0.000000  0.000000  0.000000      1.000000
  0.011940  0.006893  0.000000      6.000000
  0.023880  0.013787  0.000000      6.000000
  0.035820  0.020680  0.000000      6.000000
  0.047760  0.027574  0.000000      6.000000
  0.059699  0.034467  0.000000      6.000000
  0.071639  0.041361  0.000000      3.000000
  0.011940  0.020680  0.000000      6.000000
  0.023880  0.027574  0.000000      6.000000
 -0.023880  0.027574  0.000000      6.000000
  0.035820  0.034467  0.000000      6.000000
 -0.035820  0.034467  0.000000      6.000000
  0.047760  0.041361  0.000000      6.000000
 -0.047760  0.041361  0.000000      6.000000
  0.059699  0.048254  0.000000      6.000000
 -0.059699  0.048254  0.000000      6.000000
  0.023880  0.041361  0.000000      6.000000
  0.035820  0.048254  0.000000      6.000000
 -0.035820  0.048254  0.000000      6.000000
  0.047760  0.055148  0.000000      6.000000
 -0.047760  0.055148  0.000000      6.000000
  0.059699  0.062041  0.000000      6.000000
  0.035820  0.062041  0.000000      6.000000
  0.047760  0.068935  0.000000      6.000000
 -0.047760 -0.096509  0.000000      6.000000
  0.047760  0.082722  0.000000      2.000000

 SYSTEM =  CrI3
 POSCAR =  generated by phonopy

 Startparameter for this run:
   NWRITE =      2    write-flag & timer
   PREC   = accura    normal or accurate (medium, high low for compatibility)
   ISTART =      0    job   : 0-new  1-cont  2-samecut
   ICHARG =      1    charge: 1-file 2-atom 10-const
   ISPIN  =      2    spin polarized calculation?
   LNONCOLLINEAR =      F non collinear calculations
   LSORBIT =      F    spin-orbit coupling
   INIWAV =      1    electr: 0-lowe 1-rand  2-diag
   LASPH  =      T    aspherical Exc in radial PAW
 Electronic Relaxation 1
   ENCUT  =  350.0 eV  25.72 Ry    5.07 a.u.  10.65 10.65 35.08*2*pi/ulx,y,z
   ENINI  =  350.0     initial cutoff
   ENAUG  =  519.4 eV  augmentation charge cutoff
   NELM   =    100;   NELMIN=  2; NELMDL= -5     # of ELM steps
   EDIFF  = 0.1E-05   stopping-criterion for ELM
   LREAL  =      F    real-space projection
   NLSPLINE    = F    spline interpolate recip. space projectors
   LCOMPAT=      F    compatible to vasp.4.4
   GGA_COMPAT  = T    GGA compatible to vasp.4.4-vasp.4.6
   LMAXPAW     = -100 max onsite density
   LMAXMIX     =    4 max onsite mixed and CHGCAR
   VOSKOWN=      0    Vosko Wilk Nusair interpolation
   ROPT   =    0.00000   0.00000
 Ionic relaxation
   EDIFFG = -.1E-01   stopping-criterion for IOM
   NSW    =   1000    number of steps for IOM
   NBLOCK =      1;   KBLOCK =   1000    inner block; outer block
   IBRION =      2    ionic relax: 0-MD 1-quasi-New 2-CG
   NFREE  =      1    steps in history (QN), initial steepest desc. (CG)
   ISIF   =      4    stress and relaxation
   IWAVPR =     11    prediction:  0-non 1-charg 2-wave 3-comb
[...]
  PAW double counting   =      3181.75420531    -3114.19982211
  entropy T*S    EENTRO =        -0.00049498
  eigenvalues    EBANDS =      -388.79706635
  atomic energy  EATOM  =      5190.22191875
  Solvation  Ediel_sol  =         0.00000000
  free energy    TOTEN  =       502.08547532 eV

  energy without entropy =      502.08597030  energy(sigma->0) =      502.08572281

[...]

 eigenvalue-minimisations  :  6808
 total energy-change (2. order) :-0.4516366E+03  (-0.4324319E+03)
 number of electron      66.0000000 magnetization       8.0000000
 augmentation part       66.0000000 magnetization       8.0000000

[...]

 Broyden mixing:
  rms(total) = 0.15337E+01    rms(broyden)= 0.15255E+01
  rms(prec ) = 0.16199E+01
  weight for this iteration     100.00

[...]

 eigenvalues of (default mixing * dielectric matrix)
  average eigenvalue GAMMA=   0.5156
  0.5156

[...]

 eigenvalue-minimisations  :  5288
 total energy-change (2. order) : 0.2301873E+00  (-0.4232259E-01)
 number of electron      66.0000001 magnetization       7.1266566
 augmentation part        2.0254366 magnetization       5.5365540

[...]

 Broyden mixing:
  rms(total) = 0.27742E-04    rms(broyden)= 0.25459E-04
  rms(prec ) = 0.28143E-04
  weight for this iteration     100.00

 eigenvalues of (default mixing * dielectric matrix)
  average eigenvalue GAMMA=   1.9660
  8.6786  8.6786  4.9195  3.0724  2.5412  2.1124  2.1124  1.6107  1.1585  1.1585
  0.9178  0.9178  0.9075  0.9075  0.4330  0.7426  0.7426  0.5393  0.6414  0.6414
  0.6268  0.5788  0.5788

[...]

--------------------------------------- Iteration      1(  29)  ---------------------------------------

[...]

atom =   2  type =  1  l = 2

 onsite density matrix

[...]

  0.0615  0.0553  0.0000 -0.0000  0.0000
  0.0553  0.1046  0.0000 -0.0000 -0.0000
  0.0000  0.0000  0.0214  0.0000 -0.0000
 -0.0000 -0.0000  0.0000  0.1046 -0.0553
  0.0000 -0.0000 -0.0000 -0.0553  0.0615

 occupancies and eigenvectors

  o =  0.0214  v =  0.0000  0.0000  0.0000  0.0000  0.0000  0.0000 -0.0000 -1.0000 -0.0000 -0.0000      0.0000  0.0000  0.0000  0.0000  0.0000  0.0000  0.0000  0.0000  0.0000  0.0000
  o =  0.0238  v =  0.0000  0.0000  0.0000  0.0000  0.0000 -0.6633  0.4534 -0.0000  0.3359  0.4915      0.0000  0.0000  0.0000  0.0000  0.0000  0.0000  0.0000  0.0000  0.0000  0.0000
  o =  0.0238  v =  0.0000  0.0000  0.0000  0.0000  0.0000  0.4915 -0.3359 -0.0000  0.4534  0.6633      0.0000  0.0000  0.0000  0.0000  0.0000  0.0000  0.0000  0.0000  0.0000  0.0000
  o =  0.1424  v =  0.0000  0.0000  0.0000  0.0000  0.0000 -0.5530 -0.8092 -0.0000 -0.1639  0.1121      0.0000  0.0000  0.0000  0.0000  0.0000  0.0000  0.0000  0.0000  0.0000  0.0000
  o =  0.1424  v =  0.0000  0.0000  0.0000  0.0000  0.0000  0.1121  0.1639 -0.0000 -0.8092  0.5530      0.0000  0.0000  0.0000  0.0000  0.0000  0.0000  0.0000  0.0000  0.0000  0.0000
  o =  0.4285  v = -0.0000 -0.0001  0.0000 -0.8249  0.5652 -0.0000 -0.0000 -0.0000 -0.0000 -0.0000      0.0000  0.0000 -0.0000  0.0000 -0.0000  0.0000  0.0000  0.0000  0.0000  0.0000
  o =  0.4285  v =  0.5652  0.8249 -0.0000 -0.0001 -0.0000  0.0000  0.0000  0.0000  0.0000  0.0000      0.0000 -0.0000  0.0000  0.0000  0.0000  0.0000  0.0000  0.0000  0.0000  0.0000
  o =  0.9134  v =  0.0000 -0.0000 -1.0000 -0.0000 -0.0000  0.0000  0.0000  0.0000  0.0000  0.0000      0.0000  0.0000  0.0000  0.0000  0.0000  0.0000  0.0000  0.0000  0.0000  0.0000
  o =  0.9137  v =  0.0000 -0.0001  0.0000 -0.5652 -0.8249  0.0000  0.0000  0.0000  0.0000  0.0000      0.0000  0.0000  0.0000  0.0000  0.0000  0.0000  0.0000  0.0000  0.0000  0.0000
  o =  0.9137  v = -0.8249  0.5652 -0.0000 -0.0001 -0.0000  0.0000  0.0000  0.0000  0.0000  0.0000      0.0000  0.0000  0.0000  0.0000  0.0000  0.0000  0.0000  0.0000  0.0000  0.0000

 eigenvalue-minimisations  :  2556
 total energy-change (2. order) :-0.5237771E-06  (-0.9314532E-08)
 number of electron      66.0000001 magnetization       6.0000572
 augmentation part        2.0271604 magnetization       4.3149544

 Free energy of the ion-electron system (eV)
  alpha Z        PSCENC =        25.68431242
  Ewald energy   TEWEN  =      8046.32202045
  -Hartree energ DENC   =    -12429.25134023
  -exchange      EXHF   =         0.00000000
  -V(xc)+E(xc)   XCENC  =        30.59627475
  PAW double counting   =      3164.12827218    -3097.74406580
  entropy T*S    EENTRO =        -0.00000000
  eigenvalues    EBANDS =      -958.46850200
  atomic energy  EATOM  =      5190.22191875
  Solvation  Ediel_sol  =         0.00000000
  free energy    TOTEN  =       -28.51110947 eV

  energy without entropy =      -28.51110947  energy(sigma->0) =      -28.51110947

 average (electrostatic) potential at core
  the test charge radii are     1.0025  1.1875
  (the norm of the test charge is              1.0000)
       1 -55.7240       2 -55.7240       3 -98.5197       4 -98.5197       5 -98.5197
       6 -98.5198       7 -98.5198       8 -98.5198

 E-fermi :  -3.3114     XC(G=0):  -2.8626     alpha+bet : -2.5697

 val. band max:       -3.3560828154   @ k =   0.0000   0.0000   0.0000
 cond. band min:      -2.2213172348   @ k =   0.1667   0.1667   0.0000
 fundamental gap:      1.1347655806
 Fermi energy:        -3.3113576399

[...]

 k-point     1 :       0.0000    0.0000    0.0000
  band No.  band energies     occupation
      1     -47.5861      1.00000
      2     -47.5854      1.00000
      3     -47.5760      1.00000
      4     -47.5760      1.00000
      5     -47.5740      1.00000
      6     -47.5740      1.00000
      7     -15.8363      1.00000
      8     -15.1626      1.00000
      9     -14.8937      1.00000
     10     -14.8937      1.00000
     11     -14.7969      1.00000
     12     -14.7969      1.00000
     13      -7.6183      1.00000
     14      -7.2545      1.00000
     15      -6.7792      1.00000
     16      -6.7792      1.00000
     17      -6.7647      1.00000
     18      -6.7647      1.00000
     19      -6.1566      1.00000
     20      -6.0801      1.00000
     21      -5.9037      1.00000
     22      -5.9037      1.00000
     23      -5.7236      1.00000
     24      -5.5569      1.00000
     25      -5.5569      1.00000
     26      -5.3071      1.00000
     27      -5.3071      1.00000
     28      -4.8685      1.00000
     29      -4.8685      1.00000
     30      -4.8530      1.00000
     31      -4.7660      1.00000
     32      -4.2388      1.00000
     33      -3.8920      1.00000
     34      -3.8920      1.00000
     35      -3.3561      1.00000
     36      -3.3561      1.00000
     37      -2.2198      0.00000
     38      -2.2198      0.00000
     39      -1.8309      0.00000
     40      -1.8309      0.00000
     41       1.2856      0.00000
     42       1.4278      0.00000
     43       2.1030      0.00000
     44       2.2585      0.00000

[...]

 k-point    26 :       0.3333    0.3333    0.0000
  band No.  band energies     occupation
      1     -47.5858      1.00000
      2     -47.5858      1.00000
      3     -47.5762      1.00000
      4     -47.5750      1.00000
      5     -47.5750      1.00000
      6     -47.5738      1.00000
      7     -15.3665      1.00000
      8     -15.3665      1.00000
      9     -15.0670      1.00000
     10     -14.9280      1.00000
     11     -14.9280      1.00000
     12     -14.8488      1.00000
     13      -7.2332      1.00000
     14      -7.2332      1.00000
     15      -6.9848      1.00000
     16      -6.6074      1.00000
     17      -6.6073      1.00000
     18      -6.4427      1.00000
     19      -6.4427      1.00000
     20      -6.1252      1.00000
     21      -6.0048      1.00000
     22      -5.8334      1.00000
     23      -5.8333      1.00000
     24      -5.7137      1.00000
     25      -5.4430      1.00000
     26      -5.2851      1.00000
     27      -5.2851      1.00000
     28      -4.6913      1.00000
     29      -4.6676      1.00000
     30      -4.6676      1.00000
     31      -4.5433      1.00000
     32      -4.2960      1.00000
     33      -3.9769      1.00000
     34      -3.9769      1.00000
     35      -3.6525      1.00000
     36      -3.6525      1.00000
     37      -2.2113      0.00000
     38      -2.0839      0.00000
     39      -2.0839      0.00000
     40      -1.8662      0.00000
     41       1.4032      0.00000
     42       1.4053      0.00000
     43       2.3908      0.00000
     44       2.5344      0.00000
 Fermi energy:        -3.3113576399

 spin component 2

[...]

 k-point    26 :       0.3333    0.3333    0.0000
  band No.  band energies     occupation
      1     -44.2680      1.00000
      2     -44.2680      1.00000
      3     -44.2373      1.00000
      4     -44.2357      1.00000
      5     -44.2357      1.00000
      6     -44.2341      1.00000
      7     -15.4548      1.00000
      8     -15.4548      1.00000
      9     -15.1821      1.00000
     10     -15.0407      1.00000
     11     -15.0407      1.00000
     12     -14.9528      1.00000
     13      -6.9181      1.00000
     14      -6.9181      1.00000
     15      -6.3356      1.00000
     16      -6.3356      1.00000
     17      -6.3267      1.00000
     18      -5.7728      1.00000
     19      -5.7006      1.00000
     20      -5.7006      1.00000
     21      -5.1523      1.00000
     22      -5.0413      1.00000
     23      -4.6890      1.00000
     24      -4.6039      1.00000
     25      -4.6039      1.00000
     26      -4.2244      1.00000
     27      -4.2244      1.00000
     28      -4.1853      1.00000
     29      -3.8519      1.00000
     30      -3.8519      1.00000
     31      -0.5030      0.00000
     32      -0.5029      0.00000
     33      -0.3597      0.00000
     34      -0.1358      0.00000
     35      -0.0755      0.00000
     36      -0.0750      0.00000
     37       0.0712      0.00000
     38       0.2862      0.00000
     39       0.3022      0.00000
     40       0.3039      0.00000
     41       1.9601      0.00000
     42       1.9639      0.00000
     43       2.5186      0.00000
     44       2.8258      0.00000

 soft charge-density along one line, spin component           1
         0         1         2         3         4         5         6         7         8         9
 total charge-density along one line

 soft charge-density along one line, spin component           2
         0         1         2         3         4         5         6         7         8         9
 total charge-density along one line

------------------------ aborting loop because EDIFF is reached ----------------------------------------

 total charge

# of ion       s       p       d       tot
    1        0.250   6.211   3.952  10.412
    2        0.250   6.211   3.952  10.412
    3        1.513   2.771   0.018   4.302
    4        1.513   2.771   0.018   4.302
    5        1.513   2.771   0.018   4.302
    6        1.513   2.771   0.018   4.302
    7        1.513   2.771   0.018   4.302
    8        1.513   2.771   0.018   4.302
tot          9.576  29.049   8.012  46.638

 magnetization (x)

[...]

         DFTD3 V3.0 Rev 1
 DF pbe
 parameters
 rs18     =    1.0000
 alpha6   =   14.0000
 alpha8   =   16.0000
 k1-k3    =   16.0000    1.3333   -4.0000
 Edisp (eV)   -1.29847

 E6    (eV) :    -0.4038
 E8    (eV) :    -0.8947
 % E8        : 68.90

  FORCE on cell =-STRESS in cart. coord.  units (eV):
  Direction    XX          YY          ZZ          XY          YZ          ZX
  Alpha Z    25.68431    25.68431    25.68431
  Ewald   10278.37733 10278.37745-12510.43576     0.00003     0.00000    -0.00000
  Hartree 11400.21054 11400.21059-10371.17393     0.00001    -0.00000     0.00000
  E(xc)    -295.27535  -295.27535  -295.82148     0.00000    -0.00000    -0.00000
  Local  -22727.37432-22727.37465 21831.61257    -0.00019     0.00000     0.00000
  n-local   698.10313   698.32491   699.03970    -0.24223    -0.17073     0.18053
  augment  -110.02451  -110.02436  -110.65476     0.00013    -0.00002    -0.00001
  Kinetic   731.26299   730.11270   731.26592     0.52570    -0.11885    -0.02042
  Fock        0.00000     0.00000     0.00000     0.00000     0.00000     0.00000
  vdW        -0.76946    -0.76946     0.22186     0.00000     0.00000    -0.00000
  Total      -0.26959    -0.26959    -0.26157     0.00000    -0.00000     0.00000
  in kB      -0.44516    -0.44516    -0.43193     0.00000    -0.00000     0.00000

 VOLUME and BASIS-vectors are now :
  energy-cutoff  :      350.00
  volume of cell :      970.28
      direct lattice vectors                 reciprocal lattice vectors
     6.979410653  0.000000000  0.000000000     0.143278573  0.082721923 -0.000000000
    -3.489705327  6.044346929  0.000000000     0.000000000  0.165443846  0.000000000
     0.000000000  0.000000000 23.000000000     0.000000000 -0.000000000  0.043478261

  length of vectors
     6.979410653  6.979410653 23.000000000     0.165443846  0.165443846  0.043478261

 FORCES acting on ions
    electron-ion (+dipol)            ewald-force                    non-local-force                 convergence-correction
   0.992E-06 -.168E-05 -.300E-01   -.198E-04 0.343E-04 0.303E-01   -.345E-18 -.889E-20 -.402E-03   -.120E-08 0.286E-08 -.124E-04
   0.639E-04 -.110E-03 0.101E+00   0.771E-05 -.133E-04 -.101E+00   0.354E-19 -.161E-18 0.521E-03   0.418E-08 -.391E-08 -.734E-05
   -.440E+02 -.762E+02 0.491E+03   0.450E+02 0.779E+02 -.494E+03   -.968E+00 -.168E+01 0.259E+01   -.504E-05 -.105E-04 -.264E-04
   0.880E+02 -.247E-02 0.491E+03   -.899E+02 0.261E-02 -.494E+03   0.194E+01 -.350E-03 0.259E+01   0.116E-04 0.899E-06 -.264E-04
   -.440E+02 0.762E+02 0.491E+03   0.450E+02 -.779E+02 -.494E+03   -.968E+00 0.168E+01 0.259E+01   -.659E-05 0.962E-05 -.264E-04
   0.440E+02 0.762E+02 -.491E+03   -.450E+02 -.779E+02 0.494E+03   0.968E+00 0.168E+01 -.259E+01   0.509E-05 0.947E-05 0.250E-04
   -.880E+02 -.119E-02 -.491E+03   0.899E+02 0.835E-03 0.494E+03   -.193E+01 0.462E-03 -.259E+01   -.107E-04 -.326E-06 0.250E-04
   0.440E+02 -.762E+02 -.491E+03   -.450E+02 0.779E+02 0.494E+03   0.967E+00 -.168E+01 -.259E+01   0.566E-05 -.915E-05 0.250E-04
   0.406E-03 -.703E-03 0.914E-03   0.497E-13 0.142E-13 -.114E-12   0.000E+00 0.000E+00 -.866E-03   0.281E-08 -.804E-09 -.239E-04

 POSITION                                       TOTAL-FORCE (eV/Angst)
      0.00000      0.00000     11.50003        -0.000000      0.000000     -0.000142
      3.48971      2.01478     11.49982        -0.000000      0.000000      0.000478
      5.75119      1.90209      9.90169        -0.000206     -0.000118      0.000619
      2.45655      4.02963      9.90169         0.000205     -0.000119      0.000619
      2.26137      0.11262      9.90169         0.000001      0.000237      0.000619
      4.71805      0.11293     13.09831         0.000112     -0.000254     -0.000731
      4.52259      4.02949     13.09831         0.000164      0.000224     -0.000731
      1.22848      1.90194     13.09831        -0.000276      0.000030     -0.000731
    total drift:                                0.000406     -0.000703      0.000024

  FREE ENERGIE OF THE ION-ELECTRON SYSTEM (eV)
  free  energy   TOTEN  =       -29.80958217 eV

  energy  without entropy=      -29.80958217  energy(sigma->0) =      -29.80958217

 into chain_force
 FREE:    1.0000000000000000        1.0000000000000000        1.0000000000000000        1.0000000000000000        1.0000000000000000        1.0000000000000000        1.0000000000000000        1.0000000000000000        1.0000000000000000        1.0000000000000000        1.0000000000000000        1.0000000000000000        1.0000000000000000        1.0000000000000000        1.0000000000000000        1.0000000000000000        1.0000000000000000        1.0000000000000000        1.0000000000000000        1.0000000000000000        1.0000000000000000        1.0000000000000000        1.0000000000000000        1.0000000000000000
 stress matrix after NEB project (eV)
     -0.26959     -0.00000      0.00000
      0.00000     -0.26959      0.00000
      0.00000     -0.00000     -0.26157
  FORCES: max atom, RMS     0.000782    0.000652
  FORCE total and by dimension    0.001843    0.000731
  Stress total and by dimension    0.462358    0.269586

 reached required accuracy - stopping structural energy minimisation
 writing wavefunctions

 total charge

[...]

 magnetization (x)

# of ion       s       p       d       tot
    1        0.037   0.035   3.244   3.316
    2        0.037   0.035   3.244   3.316
    3       -0.003  -0.129   0.003  -0.128
    4       -0.003  -0.129   0.003  -0.128
    5       -0.003  -0.129   0.003  -0.128
    6       -0.003  -0.129   0.003  -0.128
    7       -0.003  -0.129   0.003  -0.128
    8       -0.003  -0.129   0.003  -0.128
tot          0.055  -0.701   6.509   5.863