 vasp.6.4.3 19Mar24 (build Jun  5 2025 09:16:45) complex
 executed on    LinuxNV_CrayMPICH date 2025.10.11  16:02:35
 OpenACC runtime initialized ...   16 GPUs detected

 INCAR:
   SYSTEM = hexagonal Boron Nitride
   ISTART = 1
   ICHARG = 1
   PREC = Accurate
   ENCUT = 350
   ADDGRID = .TRUE.
   ALGO = Fast
   EDIFF = 1E-06
   NELM = 100
   NELMIN = 2
   NELMDL = -5
   EDIFFG = -0.01
   NSW = 1000
   IBRION = 2
   ISIF = 3
   POTIM = 0.1
   ISMEAR = 0
   SIGMA = 0.1
   LCHARG = .FALSE.
   LWAVE = .FALSE.
   NBANDS = 128
   NEDOS = 50001
   OMEGAMAX = 50
   LOPTICS = .TRUE.
   KPAR = 8

 POTCAR:    PAW_PBE Si 05Jan2001
 POTCAR:    PAW_PBE Si 05Jan2001
   VRHFIN =Si: s2p2

   TITEL  = PAW_PBE Si 05Jan2001
   POMASS =   28.085; ZVAL   =    4.000    mass and valenz
   ENMAX  =  245.345; ENMIN  =  184.009 eV

  PAW_PBE Si 05Jan2001                  :

 POSCAR: Si, conventional cubic cell, diamond cub
  positions in direct lattice
  velocities in cartesian coordinates

 exchange-correlation table for PE
   RHO(1)=    0.500       N(1)  =     2000
   RHO(2)=  100.500       N(2)  =     4000

 ion  position               nearest neighbor table
   1  0.000  0.000  0.000-   5 2.37   6 2.37   7 2.37   8 2.37
   2  0.500  0.500  0.000-   5 2.37   6 2.37   7 2.37   8 2.37
   3  0.500  0.000  0.500-   5 2.37   6 2.37   7 2.37   8 2.37
   4  0.000  0.500  0.500-   5 2.37   6 2.37   7 2.37   8 2.37
   5  0.250  0.250  0.250-   1 2.37   2 2.37   3 2.37   4 2.37
   6  0.750  0.750  0.250-   1 2.37   2 2.37   3 2.37   4 2.37
   7  0.750  0.250  0.750-   1 2.37   2 2.37   3 2.37   4 2.37
   8  0.250  0.750  0.750-   1 2.37   2 2.37   3 2.37   4 2.37

  LATTYP: Found a simple cubic cell.
 ALAT       =     5.4678842947

  Lattice vectors:

 A1 = (   5.4678842947,   0.0000000000,  -0.0000000000)
 A2 = (   0.0000000000,   5.4678842947,   0.0000000000)
 A3 = (  -0.0000000000,   0.0000000000,   5.4678842947)

Analysis of symmetry for initial positions (statically):
 Subroutine PRICEL returns following result:

  LATTYP: Found a face centered cubic cell.
 ALAT       =     5.4678842947

[...]

   4 primitive cells build up your supercell.

 Routine SETGRP: Setting up the symmetry group for a
 simple cubic supercell.

 Subroutine GETGRP returns: Found 48 space group operations
 (whereof 24 operations were pure point group operations)
 out of a pool of 48 trial point group operations.

The static configuration has the point symmetry T_d .
 The point group associated with its full space group is O_h .

Analysis of symmetry for dynamics (positions and initial velocities):
 Subroutine PRICEL returns following result:

  LATTYP: Found a face centered cubic cell.
 ALAT       =     5.4678842947

  Lattice vectors:

 A1 = (   2.7339421473,  -2.7339421473,   0.0000000000)
 A2 = (   2.7339421473,   0.0000000000,   2.7339421473)
 A3 = (   0.0000000000,  -2.7339421473,   2.7339421473)

   4 primitive cells build up your supercell.

 Routine SETGRP: Setting up the symmetry group for a
 simple cubic supercell.

 Subroutine GETGRP returns: Found 48 space group operations
 (whereof 24 operations were pure point group operations)
 out of a pool of 48 trial point group operations.

The dynamic configuration has the point symmetry T_d .
 The point group associated with its full space group is O_h .

 Subroutine INISYM returns: Found 48 space group operations
 (whereof 24 operations are pure point group operations),
 and found     4 'primitive' translations

                                     Primitive cell

  volume of cell :      40.8694

  direct lattice vectors                    reciprocal lattice vectors
     2.733942147 -2.733942147  0.000000000     0.182886094 -0.182886094 -0.182886094
     2.733942147  0.000000000  2.733942147     0.182886094  0.182886094  0.182886094
     0.000000000 -2.733942147  2.733942147    -0.182886094 -0.182886094  0.182886094

  length of vectors
     3.866378064  3.866378064  3.866378064     0.316768006  0.316768006  0.316768006

  position of ions in fractional coordinates (direct lattice)
     0.000000000  0.000000000  0.000000000
     0.750000000  0.750000000  0.750000000

  ion indices of the primitive-cell ions
   primitive index   ion index
                 1           1
                 2           5

 KPOINTS: 1 Automatic mesh

Automatic generation of k-mesh.
 Grid dimensions read from file:
 generate k-points for:   16   16   16

 Generating k-lattice:

  Cartesian coordinates                     Fractional coordinates (reciprocal lattice)
     0.011430381 -0.000000000  0.000000000     0.062500000  0.000000000  0.000000000
    -0.000000000  0.011430381 -0.000000000     0.000000000  0.062500000  0.000000000
     0.000000000 -0.000000000  0.011430381     0.000000000  0.000000000  0.062500000

  Length of vectors
     0.011430381  0.011430381  0.011430381

  Shift w.r.t. Gamma in fractional coordinates (k-lattice)
     0.000000000  0.000000000  0.000000000

 Subroutine IBZKPT returns following result:

 Found    165 irreducible k-points:

 Following reciprocal coordinates:
            Coordinates               Weight
  0.000000  0.000000  0.000000      1.000000
  0.062500  0.000000  0.000000      6.000000
  0.125000  0.000000  0.000000      6.000000
  0.187500  0.000000  0.000000      6.000000
  0.250000  0.000000  0.000000      6.000000
  0.312500  0.000000  0.000000      6.000000
  0.375000  0.000000  0.000000      6.000000
  0.437500  0.000000  0.000000      6.000000
  0.500000  0.000000  0.000000      3.000000
  0.062500  0.062500  0.000000     12.000000
  0.125000  0.062500  0.000000     24.000000
  0.187500  0.062500  0.000000     24.000000
  0.250000  0.062500  0.000000     24.000000
  0.312500  0.062500  0.000000     24.000000
  0.375000  0.062500  0.000000     24.000000
  0.437500  0.062500  0.000000     24.000000
  0.500000  0.062500  0.000000     12.000000
  0.125000  0.125000  0.000000     12.000000
  0.187500  0.125000  0.000000     24.000000
  0.250000  0.125000  0.000000     24.000000
  0.312500  0.125000  0.000000     24.000000
  0.375000  0.125000  0.000000     24.000000
  0.437500  0.125000  0.000000     24.000000
  0.500000  0.125000  0.000000     12.000000
  0.187500  0.187500  0.000000     12.000000
  0.250000  0.187500  0.000000     24.000000
  0.312500  0.187500  0.000000     24.000000
  0.375000  0.187500  0.000000     24.000000
  0.437500  0.187500  0.000000     24.000000
  0.500000  0.187500  0.000000     12.000000
  0.250000  0.250000  0.000000     12.000000
  0.312500  0.250000  0.000000     24.000000
  0.375000  0.250000  0.000000     24.000000
  0.437500  0.250000  0.000000     24.000000
  0.500000  0.250000  0.000000     12.000000
  0.312500  0.312500  0.000000     12.000000
  0.375000  0.312500  0.000000     24.000000
  0.437500  0.312500  0.000000     24.000000
  0.500000  0.312500  0.000000     12.000000
  0.375000  0.375000  0.000000     12.000000
  0.437500  0.375000  0.000000     24.000000
  0.500000  0.375000  0.000000     12.000000
  0.437500  0.437500  0.000000     12.000000
  0.500000  0.437500  0.000000     12.000000
  0.500000  0.500000  0.000000      3.000000
  0.062500  0.062500  0.062500      8.000000
  0.125000  0.062500  0.062500     24.000000
  0.187500  0.062500  0.062500     24.000000
  0.250000  0.062500  0.062500     24.000000
  0.312500  0.062500  0.062500     24.000000
  0.375000  0.062500  0.062500     24.000000
  0.437500  0.062500  0.062500     24.000000
  0.500000  0.062500  0.062500     12.000000
  0.125000  0.125000  0.062500     24.000000
  0.187500  0.125000  0.062500     48.000000
  0.250000  0.125000  0.062500     48.000000
  0.312500  0.125000  0.062500     48.000000
  0.375000  0.125000  0.062500     48.000000
  0.437500  0.125000  0.062500     48.000000
  0.500000  0.125000  0.062500     24.000000
[...]
  0.437500  0.375000  0.312500     48.000000
  0.500000  0.375000  0.312500     24.000000
  0.437500  0.437500  0.312500     24.000000
  0.500000  0.437500  0.312500     24.000000
  0.500000  0.500000  0.312500      6.000000
  0.375000  0.375000  0.375000      8.000000
  0.437500  0.375000  0.375000     24.000000
  0.500000  0.375000  0.375000     12.000000
  0.437500  0.437500  0.375000     24.000000
  0.500000  0.437500  0.375000     24.000000
  0.500000  0.500000  0.375000      6.000000
  0.437500  0.437500  0.437500      8.000000
  0.500000  0.437500  0.437500     12.000000
  0.500000  0.500000  0.437500      6.000000
  0.500000  0.500000  0.500000      1.000000

 Following cartesian coordinates:
            Coordinates               Weight
  0.000000  0.000000  0.000000      1.000000
  0.062078  0.000000  0.000000      6.000000
  0.124157  0.000000  0.000000      6.000000
  0.186235  0.000000  0.000000      6.000000
  0.248314  0.000000  0.000000      6.000000
  0.310392  0.000000  0.000000      6.000000
  0.372470  0.000000  0.000000      6.000000
  0.434549  0.000000  0.000000      6.000000
  0.496627  0.000000  0.000000      3.000000
  0.062078  0.062078  0.000000     12.000000
  0.124157  0.062078  0.000000     24.000000
  0.186235  0.062078  0.000000     24.000000
  0.248314  0.062078  0.000000     24.000000
  0.310392  0.062078  0.000000     24.000000
  0.372470  0.062078  0.000000     24.000000
  0.434549  0.062078  0.000000     24.000000
  0.496627  0.062078  0.000000     12.000000
  0.124157  0.124157  0.000000     12.000000
  0.186235  0.124157  0.000000     24.000000
  0.248314  0.124157  0.000000     24.000000
  0.310392  0.124157  0.000000     24.000000
  0.372470  0.124157  0.000000     24.000000
  0.434549  0.124157  0.000000     24.000000
  0.496627  0.124157  0.000000     12.000000
  0.186235  0.186235  0.000000     12.000000
  0.248314  0.186235  0.000000     24.000000
  0.310392  0.186235  0.000000     24.000000
  0.372470  0.186235  0.000000     24.000000
  0.434549  0.186235  0.000000     24.000000
  0.496627  0.186235  0.000000     12.000000
  0.248314  0.248314  0.000000     12.000000
  0.310392  0.248314  0.000000     24.000000
  0.372470  0.248314  0.000000     24.000000
  0.434549  0.248314  0.000000     24.000000
  0.496627  0.248314  0.000000     12.000000
  0.310392  0.310392  0.000000     12.000000
  0.372470  0.310392  0.000000     24.000000
  0.434549  0.310392  0.000000     24.000000
  0.496627  0.310392  0.000000     12.000000
  0.372470  0.372470  0.000000     12.000000
  0.434549  0.372470  0.000000     24.000000
  0.496627  0.372470  0.000000     12.000000
  0.434549  0.434549  0.000000     12.000000
  0.496627  0.434549  0.000000     12.000000
  0.496627  0.496627  0.000000      3.000000
  0.062078  0.062078  0.062078      8.000000
  0.124157  0.062078  0.062078     24.000000
  0.186235  0.062078  0.062078     24.000000
  0.248314  0.062078  0.062078     24.000000
  0.310392  0.062078  0.062078     24.000000
  0.372470  0.062078  0.062078     24.000000
  0.434549  0.062078  0.062078     24.000000
  0.496627  0.062078  0.062078     12.000000
  0.124157  0.124157  0.062078     24.000000
  0.186235  0.124157  0.062078     48.000000
  0.248314  0.124157  0.062078     48.000000
  0.310392  0.124157  0.062078     48.000000
  0.372470  0.124157  0.062078     48.000000
[...]

 Flat profile

 lr_optic                               51.796050           1
 total_time                             10.451633           1
 eddav                                   2.804738           5
 init_acc                                2.511945           1
 lapack                                  2.427910        5460
 redis_pw                                2.268903       59892
 m_sumb_d                                2.160083       19161
 strenl                                  1.697684           1
 m_alltoall_d                            1.492491      231168
 spher                                   0.965386          26
 wfinit                                  0.954731           1
 fft3d                                   0.891227       54892
 acc_cufft_makeplan                      0.772246          19
 proj1_acc                               0.703653       14784
 eccp                                    0.687817       11818
 redis_proj                              0.621122       75012
 kpar_sync_all                           0.586512           2
 m_bcast_z                               0.578997       30224
 densta                                  0.497576           8
 orth1                                   0.442372       16716
 vnlac0                                  0.438540        3024
 hamiltmu                                0.432869        6075
 dfftw_execute                           0.412953         243
 overl1                                  0.409100       30414
 w1_copy                                 0.371886       72750
 setdij_                                 0.328711          31
 fornl                                   0.304395           1
 overl                                   0.299053       37107
 setup_precond                           0.288914        8064
 vnlac0_acc                              0.287383       24250
 fftwav                                  0.244843       28290
 newband                                 0.221976        6201
 proall                                  0.193043           2
 ggemm                                   0.190022        7140
 m_max_i                                 0.186153          22
 eddiag_lr                               0.182614           3
 w1_gemv                                 0.160157        4264
 projmu_acc                              0.155301        4395
 i2                                      0.152496         615
 orthch                                  0.141255           3
 elmin                                   0.133223           1
 setwdes                                 0.129449        1505
 kinhamil                                0.121129       25594
 fft3d_mpi                               0.117783       26736
 vhamil                                  0.114492       25594
 eccp_nl                                 0.112061        3754
 fftext_mpi                              0.111806       26602
 m_alltoallv_z                           0.110456         140
 vnlac0|dgemv                            0.110030       24192
 cnorma                                  0.098493        3754
 soft_charge                             0.095323           2
 eddiag                                  0.093747           1
 apply_precond                           0.093703       18596
 potlok                                  0.071915           4
 proj                                    0.068792          42
 m_bcast_d                               0.065516       11006
 lrf_rphi0                               0.064635           3
 acc_init_cublas                         0.061975           1
 spher_der                               0.050851           3
 phase                                   0.049276         442
 proj1                                   0.047172        1008
 choleski                                0.045097          63
 map_scatter                             0.044865         140
 force_and_stress                        0.042100           1
 fftwav_mpi                              0.040860       28290
 map_gather                              0.039829         140
 hamilt_local                            0.038261        1344
 w1_dscal                                0.037661        5608
 w1_dot                                  0.036912        1344
 depsum                                  0.035747           2
 w1_daxpy                                0.030933        4820
 acc_init_cusolver                       0.030482           1
 hamiltmu_commutator                     0.026159         252
 m_sumb_s                                0.025028           1
 lrf_commutator                          0.024708           3
 augmentation_charge                     0.024001           2
 lincom                                  0.019350         189
 eddrmm                                  0.018636           1
 inisym                                  0.013836           1
 fftbas_plan_mpi                         0.013747         134
 fftwav_w1                               0.010830       27282
 w1_gaxpy                                0.010611        2132
 i3                                      0.009021         615
 pw_charge                               0.008495         344
 zhegv                                   0.007180        1066
 set_charge                              0.007008           2
 stufak                                  0.005496           2
 w1_projall                              0.004985        4395
 brmix                                   0.003526           2
 truncate_high_frequency_w1              0.002903       32314
 pothar                                  0.002427           5
 setg0                                   0.001671           3
 i1                                      0.001519         615
 strelo                                  0.001418           1
 forloc                                  0.001299           1
 bandgap                                 0.001119           1
 rad_lda_xc                              0.001115           8
 potxc                                   0.001082           1
 strehar                                 0.001017           1
 forhar                                  0.000543           2
 strkin                                  0.000539           1
 overl1_c                                0.000513        1008
 map_backward                            0.000507         134
 map_forward                             0.000487         134
 rad_gga_xc                              0.000457           8
 posmap                                  0.000291           2
 splcof                                  0.000278          18
 chggra                                  0.000211           1
 set_dd_paw                              0.000190           5
 fewald                                  0.000183           1
 rsp                                     0.000156           1
 brgrid                                  0.000119           1
 broyd                                   0.000107           2
 fftbrc_mpi                              0.000098         134
 rad_pot                                 0.000096           8
 brget                                   0.000050          17
 brsav                                   0.000037          11
 brpre                                   0.000034           2
 crpa_reader                             0.000027           1
 fordep                                  0.000022           1
 acc_cufft_makeplans                     0.000021           3
 fft_gq                                  0.000019           2
 vectorpot                               0.000018           3
 set_dd_magatom                          0.000017           4
 rcp                                     0.000016           1
 rad_proj                                0.000010           4
 set_rsgf_all                            0.000005           5
 rad_aug_proj                            0.000002           2
 shift_bands_between_low_high            0.000001          21
 rad_pot_weight                          0.000001           4
 rad_aug_charge                          0.000001           1
 redis_pw_over_bands                     0.000000           1
 rotate_active_occupied_orbital          0.000000           1
 splval                                  0.000000           1
  summed up times     93.31255507469177

 Accumulative profile

 total_time                             93.312555           1
 lr_optic                               54.727188           1
 elmin                                  17.042126           1
 eddav                                  14.439617           5
 force_and_stress                        4.395282           1
 strenl                                  3.087853           1
 redis_pw                                2.992574       59892
 init_acc                                2.511955           1
 lapack                                  2.427910        5460
 lrf_rphi0                               2.183816           3
 m_sumb_d                                2.160083       19161
 hamiltmu                                1.593675        6075
 newband                                 1.566201        6201
 m_alltoall_d                            1.492491      231168
 redis_proj                              1.389943       75012
 eddrmm                                  1.382008           1
 wfinit                                  1.370889           1
 lrf_commutator                          1.229577           3
 fft3d_mpi                               1.173658       26736
 setdij_                                 0.999557          31
 spher                                   0.965386          26
 fft3d                                   0.891227       54892
 hamiltmu_commutator                     0.883673         252
 acc_cufft_makeplans                     0.772267           3
 acc_cufft_makeplan                      0.772246          19
 fftwav_mpi                              0.743997       28290
 proj1_acc                               0.703653       14784
 fftwav                                  0.703137       28290
 eccp                                    0.687817       11818
 orthch                                  0.647947           3
 fftbrc_mpi                              0.622943         134
 fftbas_plan_mpi                         0.622845         134
 eddiag_lr                               0.600417           3
 kpar_sync_all                           0.587044           2
 densta                                  0.582416           8
 m_bcast_z                               0.578997       30224
 fftext_mpi                              0.554136       26602
 vnlac0                                  0.548570        3024
 i3                                      0.496983         615
 fftwav_w1                               0.479948       27282
 i2                                      0.468385         615
 orth1                                   0.442372       16716
 kinhamil                                0.415017       25594
 dfftw_execute                           0.412953         243
 overl1                                  0.409100       30414
 w1_copy                                 0.371886       72750
 proall                                  0.363047           2
 eddiag                                  0.310444           1
 fornl                                   0.308986           1
 overl                                   0.299053       37107
 setup_precond                           0.288914        8064
 vnlac0_acc                              0.287383       24250
 spher_der                               0.287241           3
 set_charge                              0.244389           2
 cnorma                                  0.210554        3754
 w1_gemv                                 0.197681        4264
 ggemm                                   0.190022        7140
 fordep                                  0.187516           1
 m_max_i                                 0.186153          22
 proj                                    0.166992          42
 w1_projall                              0.160286        4395
 map_forward                             0.155990         134
 projmu_acc                              0.155301        4395
 soft_charge                             0.134928           2
 setwdes                                 0.129449        1505
 vhamil                                  0.114492       25594
 potlok                                  0.113615           4
 eccp_nl                                 0.112061        3754
 m_alltoallv_z                           0.110456         140
 vnlac0|dgemv                            0.110030       24192
 apply_precond                           0.093703       18596
 augmentation_charge                     0.066085           2
 m_bcast_d                               0.065516       11006
 hamilt_local                            0.064081        1344
 acc_init_cublas                         0.061975           1
 phase                                   0.049276         442
 proj1                                   0.047172        1008
 choleski                                0.045097          63
 map_scatter                             0.044865         140
 map_backward                            0.040154         134
 map_gather                              0.039829         140
 w1_dscal                                0.037661        5608
 w1_dot                                  0.036912        1344
 depsum                                  0.035959           2
 w1_daxpy                                0.030933        4820
 acc_init_cusolver                       0.030482           1
 m_sumb_s                                0.025028           1
 lincom                                  0.019350         189
 inisym                                  0.014127           1
 set_dd_paw                              0.013644           5
 i1                                      0.012944         615
 w1_gaxpy                                0.010611        2132
 pw_charge                               0.008495         344
 brmix                                   0.007588           2
 zhegv                                   0.007180        1066
 stufak                                  0.005496           2
 truncate_high_frequency_w1              0.002903       32314
 potxc                                   0.002886           1
 pothar                                  0.002449           5
 forloc                                  0.002077           1
 setg0                                   0.001671           3
 rad_pot                                 0.001668           8
 strelo                                  0.001485           1
 fft_gq                                  0.001377           2
 bandgap                                 0.001119           1
 rad_lda_xc                              0.001115           8
 strehar                                 0.001020           1
 chggra                                  0.000754           1
 fewald                                  0.000647           1
 strkin                                  0.000593           1
 forhar                                  0.000553           2
 overl1_c                                0.000513        1008
 rad_gga_xc                              0.000457           8
 posmap                                  0.000291           2
 splcof                                  0.000278          18
 broyd                                   0.000218           2
 rsp                                     0.000156           1
 brgrid                                  0.000134           1
 brget                                   0.000050          17
 brsav                                   0.000037          11
 brpre                                   0.000034           2
 crpa_reader                             0.000027           1
 vectorpot                               0.000018           3
 set_dd_magatom                          0.000017           4
 rcp                                     0.000016           1
 rad_proj                                0.000010           4
 set_rsgf_all                            0.000005           5
 rad_aug_proj                            0.000002           2
 shift_bands_between_low_high            0.000001          21
 rad_pot_weight                          0.000001           4
 rad_aug_charge                          0.000001           1
 redis_pw_over_bands                     0.000000           1
 rotate_active_occupied_orbital          0.000000           1
 splval                                  0.000000           1

Profiling took   0.182944  0.079745  0.003661  0.003581 seconds
Profiling took   0.100560 seconds